c 198_3_checker.cnf
c
c field = 198
c formula set type = 3_checker
c
p cnf 4 24
390 
392 
396 
-398 
391 
393 
397 
-399 
392 
396 
398 
-390 
393 
397 
399 
-391 
392 
396 
398 
-400 
393 
397 
399 
-401 
396 
398 
400 
-392 
397 
399 
401 
-393 
396 
398 
400 
-402 
397 
399 
401 
-403 
304 
334 
364 
-274 
305 
335 
365 
-275 
304 
334 
364 
-424 
305 
335 
365 
-425 
334 
364 
424 
-304 
335 
365 
425 
-305 
330 
362 
426 
-394 
331 
363 
427 
-395 
310 
338 
366 
-282 
311 
339 
367 
-283 
310 
338 
366 
-422 
311 
339 
367 
-423 
338 
366 
422 
-310 
339 
367 
423 
-311 
